Normalized Data/p10_24_normalized_splitx10_0.vrp
NAME:p10_24_NORMALIZED_splitx10_
BEST_KNOWN: 0
COMMENT: 0
DIMENSION: 830
CAPACITY: 1000
EDGE_WEIGHT_FORMAT: FUNCTION
EDGE_WEIGHT_TYPE: EXACT_2D
NODE_COORD_SECTION
1 0.00000 0.00000
2 39 50
3 39 50
4 39 50
5 39 50
6 39 50
7 -15 33
8 -15 33
9 -15 33
10 -15 33
11 -15 33
12 20 26
13 20 26
14 25 45
15 25 45
16 -39 -34
17 -39 -34
18 -39 -34
19 34 -32
20 34 -32
21 34 -32
22 34 -32
23 34 -32
24 16 -7
25 16 -7
26 16 -7
27 16 -7
28 16 -7
29 16 -7
30 16 -7
31 16 9
32 16 9
33 -33 1
34 -33 1
35 -33 1
36 -33 1
37 22 30
38 22 30
39 22 30
40 24 9
41 24 9
42 24 9
43 -3 -17
44 -3 -17
45 -3 -17
46 -3 -17
47 -3 -17
48 -3 -17
49 11 -43
50 11 -43
51 11 -43
52 -12 -47
53 -12 -47
54 -12 -47
55 -12 -47
56 -12 -47
57 -12 -47
58 -12 -47
59 -21 48
60 -21 48
61 -21 48
62 -21 48
63 23 -8
64 23 -8
65 23 -8
66 23 -8
67 23 -8
68 23 -8
69 23 -8
70 -2 2
71 -11 -12
72 -11 -12
73 -11 -12
74 -11 -12
75 -11 -12
76 -25 39
77 -25 39
78 -25 39
79 -25 39
80 -25 39
81 25 -22
82 25 -22
83 46 35
84 46 35
85 46 35
86 46 35
87 46 35
88 46 35
89 46 35
90 -44 32
91 -44 32
92 -44 32
93 -39 25
94 -39 25
95 33 -14
96 33 -14
97 33 -14
98 33 -14
99 33 -14
100 33 -14
101 -26 41
102 -26 41
103 -49 5
104 -49 5
105 -49 5
106 -42 21
107 -42 21
108 -42 21
109 -42 21
110 -42 21
111 -14 -31
112 -14 -31
113 -14 -31
114 -14 -31
115 -14 -31
116 -14 -31
117 -14 -31
118 -31 1
119 -31 1
120 43 -31
121 43 -31
122 43 -31
123 -42 19
124 -42 19
125 -42 19
126 -42 19
127 -42 19
128 -42 19
129 -42 19
130 25 -33
131 25 -33
132 25 -33
133 25 -33
134 8 35
135 8 35
136 8 35
137 21 28
138 21 28
139 -16 15
140 -16 15
141 -16 15
142 -16 15
143 -16 15
144 -36 49
145 -36 49
146 -36 49
147 -36 49
148 38 -24
149 38 -24
150 38 -24
151 38 -24
152 38 -24
153 38 -24
154 38 -24
155 33 19
156 33 19
157 33 19
158 15 -12
159 15 -12
160 15 -12
161 15 -12
162 15 -12
163 15 -12
164 15 -12
165 31 23
166 31 23
167 3 -16
168 3 -16
169 3 -16
170 3 -16
171 3 -16
172 3 -16
173 19 -5
174 19 -5
175 19 -5
176 19 -5
177 19 -5
178 -7 -41
179 -7 -41
180 29 33
181 29 33
182 29 33
183 29 33
184 29 33
185 29 33
186 29 33
187 11 -33
188 11 -33
189 11 -33
190 11 -33
191 11 -33
192 14 -30
193 14 -30
194 14 -30
195 14 -30
196 14 -30
197 -20 -19
198 -20 -19
199 2 7
200 2 7
201 2 7
202 2 7
203 -1 -32
204 -1 -32
205 -1 -32
206 -1 -32
207 -41 36
208 -41 36
209 -41 36
210 4 8
211 4 8
212 4 8
213 4 8
214 4 8
215 -23 41
216 -23 41
217 -23 41
218 -23 41
219 -23 41
220 44 -25
221 44 -25
222 6 -35
223 6 -35
224 6 -35
225 50 -37
226 50 -37
227 13 24
228 13 24
229 13 24
230 13 24
231 13 24
232 -48 34
233 -48 34
234 -48 34
235 -48 34
236 11 28
237 11 28
238 -5 -2
239 -5 -2
240 -5 -2
241 -5 -2
242 -5 -2
243 -5 -2
244 3 -16
245 3 -16
246 3 -16
247 3 -16
248 -45 -50
249 -45 -50
250 -4 9
251 -4 9
252 -4 9
253 -4 9
254 -4 9
255 -4 9
256 4 -37
257 4 -37
258 4 -37
259 4 -37
260 4 -37
261 4 -37
262 47 9
263 47 9
264 47 9
265 47 9
266 47 9
267 47 9
268 47 9
269 42 -19
270 42 -19
271 42 -19
272 42 -19
273 42 -19
274 42 -19
275 -1 -18
276 -1 -18
277 -1 -18
278 -1 -18
279 -1 -18
280 -1 -18
281 20 -38
282 20 -38
283 20 -38
284 20 -38
285 20 -38
286 -9 -7
287 -9 -7
288 -9 -7
289 -9 -7
290 14 -14
291 14 -14
292 14 -14
293 -40 43
294 -40 43
295 -40 43
296 2 -44
297 2 -44
298 2 -44
299 2 -44
300 2 -44
301 2 -44
302 24 -34
303 24 -34
304 24 -34
305 24 -34
306 24 -34
307 24 -34
308 24 -34
309 -21 -19
310 -21 -19
311 -21 -19
312 24 29
313 24 29
314 24 29
315 24 29
316 24 29
317 47 38
318 47 38
319 47 38
320 47 38
321 47 38
322 20 -14
323 20 -14
324 -11 36
325 -11 36
326 -11 36
327 -11 36
328 -11 36
329 -11 36
330 -11 36
331 -2 -18
332 -2 -18
333 -2 -18
334 -2 -18
335 -2 -18
336 -2 -18
337 -29 -10
338 -29 -10
339 -29 -10
340 -29 -10
341 -29 -10
342 -46 29
343 -46 29
344 -46 29
345 -42 5
346 -42 5
347 -42 5
348 -42 5
349 -42 5
350 15 -34
351 15 -34
352 6 39
353 6 39
354 6 39
355 25 -39
356 25 -39
357 25 -39
358 25 -39
359 20 15
360 20 15
361 20 15
362 20 15
363 20 15
364 20 15
365 -9 4
366 -9 4
367 -9 4
368 -9 4
369 -9 4
370 -9 4
371 -9 22
372 -9 22
373 -9 22
374 -11 31
375 -11 31
376 -11 31
377 -11 31
378 -11 31
379 11 41
380 11 41
381 -5 27
382 -5 27
383 -5 27
384 -5 27
385 -5 27
386 -5 27
387 26 50
388 26 50
389 26 50
390 26 50
391 26 50
392 -1 -1
393 -1 -1
394 -1 -1
395 -1 -1
396 25 1
397 25 1
398 25 1
399 -2 41
400 -2 41
401 -2 41
402 -2 41
403 -2 41
404 -2 41
405 -39 -46
406 -39 -46
407 -39 -46
408 -39 -46
409 -39 -46
410 -13 12
411 -13 12
412 -13 12
413 -13 12
414 3 21
415 3 21
416 -44 -31
417 -44 -31
418 -44 -31
419 -44 -31
420 3 -43
421 3 -43
422 3 -43
423 3 -43
424 -3 -34
425 -3 -34
426 -3 -34
427 -48 9
428 -48 9
429 -48 9
430 -48 9
431 -48 9
432 20 16
433 20 16
434 19 8
435 19 8
436 19 8
437 -25 -6
438 -25 -6
439 -25 -6
440 -25 -6
441 22 22
442 22 22
443 22 22
444 22 22
445 22 22
446 22 22
447 -4 47
448 -4 47
449 -4 47
450 -4 47
451 36 8
452 36 8
453 -15 42
454 -15 42
455 -15 42
456 -15 42
457 -15 42
458 19 50
459 19 50
460 19 50
461 19 50
462 -39 20
463 -39 20
464 -39 20
465 -39 20
466 -39 20
467 -39 20
468 -15 -15
469 -15 -15
470 -15 -15
471 -15 -15
472 -15 -15
473 -15 -15
474 -15 -15
475 -21 5
476 -21 5
477 27 -27
478 27 -27
479 27 -27
480 27 -27
481 -14 32
482 -14 32
483 -14 32
484 -14 32
485 -14 32
486 -14 32
487 -14 32
488 12 2
489 12 2
490 12 2
491 9 -18
492 9 -18
493 9 -18
494 15 0
495 15 0
496 15 0
497 15 0
498 15 0
499 15 0
500 -1 15
501 -1 15
502 32 22
503 32 22
504 32 22
505 32 22
506 32 22
507 -9 -15
508 -9 -15
509 -9 -15
510 -9 -15
511 -33 44
512 -2 41
513 -2 41
514 -2 41
515 -2 41
516 -2 41
517 43 -1
518 43 -1
519 -26 48
520 -26 48
521 -26 48
522 -26 48
523 -32 28
524 -32 28
525 -32 28
526 45 4
527 45 4
528 45 4
529 23 -23
530 23 -23
531 23 -23
532 23 -23
533 23 -23
534 23 -23
535 36 -5
536 36 -5
537 39 43
538 39 43
539 39 43
540 26 -33
541 26 -33
542 26 -33
543 25 38
544 25 38
545 25 38
546 27 37
547 27 37
548 27 37
549 27 37
550 27 37
551 -12 39
552 -12 39
553 -12 39
554 -43 -30
555 -43 -30
556 -43 -30
557 -3 0
558 -3 0
559 -3 0
560 -3 0
561 -3 0
562 1 -18
563 1 -18
564 1 -18
565 1 -18
566 1 -18
567 1 -18
568 -41 -32
569 -41 -32
570 -16 -50
571 -16 -50
572 -16 -50
573 -16 -50
574 -28 -7
575 -28 -7
576 -28 -7
577 -28 -7
578 -28 -7
579 -28 -7
580 5 -27
581 5 -27
582 5 -27
583 5 -27
584 5 -27
585 -25 -2
586 -25 -2
587 -2 39
588 -2 39
589 -2 39
590 -2 39
591 32 26
592 32 26
593 32 26
594 32 26
595 -29 -25
596 -29 -25
597 -29 -25
598 9 -5
599 9 -5
600 9 -5
601 34 -35
602 34 -35
603 34 -35
604 34 -35
605 34 -35
606 33 -49
607 33 -49
608 33 -49
609 -10 -8
610 -10 -8
611 -10 -8
612 -10 -8
613 18 41
614 18 41
615 18 41
616 18 41
617 18 41
618 7 37
619 7 37
620 7 37
621 7 37
622 7 37
623 -7 -30
624 -7 -30
625 -7 -30
626 -24 -38
627 -24 -38
628 48 -14
629 48 -14
630 48 -14
631 48 -14
632 48 -14
633 -5 -6
634 -5 -6
635 -5 -6
636 -5 -6
637 -5 -6
638 -5 -6
639 -5 -6
640 24 42
641 24 42
642 24 42
643 -45 0
644 -45 0
645 -45 0
646 -45 0
647 33 21
648 33 21
649 33 21
650 33 21
651 33 21
652 -6 31
653 -6 31
654 -6 31
655 -6 31
656 -6 31
657 -6 31
658 -25 3
659 -25 3
660 -25 3
661 -25 3
662 -25 3
663 -25 3
664 -44 -16
665 -49 -1
666 -49 -1
667 39 -20
668 39 -20
669 39 -20
670 30 25
671 -25 -43
672 13 26
673 13 26
674 13 26
675 38 -22
676 38 -22
677 38 -22
678 -28 21
679 -28 21
680 -28 21
681 -28 21
682 -28 21
683 -28 21
684 -28 21
685 -47 47
686 -47 47
687 -47 47
688 -47 47
689 -47 47
690 -47 47
691 -47 47
692 11 3
693 11 3
694 11 3
695 11 3
696 11 3
697 17 10
698 17 10
699 17 10
700 17 10
701 17 10
702 -8 16
703 -8 16
704 -8 16
705 -8 16
706 -8 16
707 -7 11
708 -7 11
709 -7 11
710 -7 11
711 -7 11
712 13 -47
713 13 -47
714 13 -47
715 13 -47
716 36 3
717 36 3
718 36 3
719 -48 33
720 -48 33
721 -48 33
722 -48 33
723 -48 33
724 -34 -16
725 -34 -16
726 -34 -16
727 -34 -16
728 -34 -16
729 -9 29
730 -9 29
731 -9 29
732 -17 10
733 -17 10
734 -17 10
735 -32 16
736 -32 16
737 -32 16
738 -32 16
739 -32 16
740 -32 16
741 -44 29
742 -44 29
743 -44 29
744 -44 29
745 -44 29
746 -44 29
747 -17 -47
748 -17 -47
749 -17 -47
750 -17 -47
751 -17 -47
752 -12 11
753 -12 11
754 -12 11
755 -12 11
756 -12 11
757 -12 11
758 38 -41
759 38 -41
760 38 -41
761 38 -41
762 7 43
763 7 43
764 7 43
765 -10 44
766 -10 44
767 -42 -39
768 -42 -39
769 -42 -39
770 -42 -39
771 -42 -39
772 -42 -39
773 -2 -42
774 -2 -42
775 -2 -42
776 -2 -42
777 -2 -42
778 -2 -42
779 -21 34
780 -21 34
781 -16 9
782 -16 9
783 0 34
784 0 34
785 0 34
786 0 34
787 0 34
788 28 44
789 28 44
790 28 44
791 28 44
792 40 -11
793 40 -11
794 40 -11
795 40 -11
796 40 -11
797 40 -11
798 40 -11
799 -32 -40
800 -32 -40
801 -32 -40
802 -32 -40
803 -22 42
804 -22 42
805 -22 42
806 -22 42
807 -22 42
808 -22 42
809 -22 42
810 5 12
811 5 12
812 5 12
813 5 12
814 5 12
815 5 12
816 -16 -23
817 -16 -23
818 -16 -23
819 -16 -23
820 -16 -23
821 -21 -16
822 30 10
823 30 10
824 30 10
825 30 10
826 30 10
827 -20 20
828 -20 20
829 -20 20
830 -20 20
DEMAND_SECTION
1 0
2 100
3 10
4 10
5 10
6 10
7 200
8 200
9 10
10 10
11 10
12 200
13 100
14 100
15 50
16 100
17 10
18 10
19 200
20 50
21 10
22 10
23 10
24 200
25 100
26 50
27 10
28 10
29 10
30 10
31 200
32 100
33 100
34 10
35 10
36 10
37 200
38 50
39 10
40 200
41 100
42 10
43 200
44 200
45 10
46 10
47 10
48 10
49 100
50 10
51 10
52 200
53 100
54 50
55 10
56 10
57 10
58 10
59 100
60 50
61 10
62 10
63 200
64 200
65 50
66 10
67 10
68 10
69 10
70 200
71 200
72 200
73 50
74 10
75 10
76 200
77 200
78 10
79 10
80 10
81 100
82 50
83 200
84 100
85 50
86 10
87 10
88 10
89 10
90 200
91 100
92 10
93 200
94 50
95 200
96 200
97 50
98 10
99 10
100 10
101 100
102 50
103 100
104 50
105 10
106 200
107 50
108 10
109 10
110 10
111 200
112 200
113 50
114 10
115 10
116 10
117 10
118 200
119 200
120 200
121 50
122 10
123 200
124 100
125 50
126 10
127 10
128 10
129 10
130 100
131 10
132 10
133 10
134 100
135 50
136 10
137 100
138 50
139 200
140 50
141 10
142 10
143 10
144 200
145 10
146 10
147 10
148 200
149 100
150 50
151 10
152 10
153 10
154 10
155 200
156 100
157 50
158 200
159 100
160 50
161 10
162 10
163 10
164 10
165 200
166 200
167 200
168 100
169 10
170 10
171 10
172 10
173 200
174 100
175 10
176 10
177 10
178 100
179 50
180 200
181 200
182 50
183 10
184 10
185 10
186 10
187 200
188 200
189 10
190 10
191 10
192 200
193 200
194 10
195 10
196 10
197 200
198 100
199 100
200 50
201 10
202 10
203 200
204 200
205 10
206 10
207 200
208 100
209 10
210 100
211 50
212 10
213 10
214 10
215 200
216 50
217 10
218 10
219 10
220 100
221 50
222 200
223 100
224 50
225 100
226 50
227 200
228 100
229 10
230 10
231 10
232 100
233 50
234 10
235 10
236 200
237 100
238 200
239 100
240 50
241 10
242 10
243 10
244 200
245 100
246 50
247 10
248 200
249 200
250 200
251 200
252 50
253 10
254 10
255 10
256 100
257 50
258 10
259 10
260 10
261 10
262 200
263 200
264 50
265 10
266 10
267 10
268 10
269 200
270 200
271 10
272 10
273 10
274 10
275 200
276 200
277 50
278 10
279 10
280 10
281 200
282 50
283 10
284 10
285 10
286 200
287 100
288 50
289 10
290 200
291 200
292 100
293 200
294 100
295 10
296 200
297 50
298 10
299 10
300 10
301 10
302 200
303 200
304 50
305 10
306 10
307 10
308 10
309 200
310 200
311 10
312 200
313 100
314 50
315 10
316 10
317 200
318 50
319 10
320 10
321 10
322 200
323 200
324 200
325 100
326 50
327 10
328 10
329 10
330 10
331 200
332 200
333 10
334 10
335 10
336 10
337 200
338 10
339 10
340 10
341 10
342 200
343 200
344 10
345 200
346 100
347 10
348 10
349 10
350 200
351 10
352 200
353 100
354 10
355 200
356 100
357 50
358 10
359 200
360 50
361 10
362 10
363 10
364 10
365 200
366 200
367 50
368 10
369 10
370 10
371 200
372 50
373 10
374 100
375 50
376 10
377 10
378 10
379 200
380 100
381 200
382 200
383 10
384 10
385 10
386 10
387 200
388 200
389 50
390 10
391 10
392 200
393 100
394 10
395 10
396 200
397 100
398 50
399 200
400 50
401 10
402 10
403 10
404 10
405 200
406 200
407 50
408 10
409 10
410 100
411 50
412 10
413 10
414 200
415 100
416 200
417 50
418 10
419 10
420 200
421 200
422 50
423 10
424 200
425 200
426 10
427 200
428 100
429 10
430 10
431 10
432 100
433 50
434 200
435 200
436 100
437 100
438 50
439 10
440 10
441 100
442 50
443 10
444 10
445 10
446 10
447 200
448 200
449 50
450 10
451 200
452 50
453 200
454 200
455 50
456 10
457 10
458 200
459 10
460 10
461 10
462 100
463 50
464 10
465 10
466 10
467 10
468 200
469 100
470 50
471 10
472 10
473 10
474 10
475 200
476 10
477 200
478 100
479 50
480 10
481 200
482 100
483 50
484 10
485 10
486 10
487 10
488 200
489 200
490 100
491 200
492 50
493 10
494 200
495 100
496 10
497 10
498 10
499 10
500 100
501 50
502 200
503 100
504 10
505 10
506 10
507 200
508 50
509 10
510 10
511 200
512 100
513 50
514 10
515 10
516 10
517 200
518 100
519 200
520 200
521 50
522 10
523 200
524 200
525 50
526 200
527 200
528 50
529 200
530 200
531 10
532 10
533 10
534 10
535 100
536 50
537 200
538 200
539 50
540 100
541 10
542 10
543 200
544 200
545 100
546 200
547 100
548 10
549 10
550 10
551 200
552 200
553 10
554 200
555 50
556 10
557 100
558 10
559 10
560 10
561 10
562 200
563 200
564 10
565 10
566 10
567 10
568 200
569 50
570 100
571 10
572 10
573 10
574 100
575 50
576 10
577 10
578 10
579 10
580 100
581 50
582 10
583 10
584 10
585 200
586 10
587 200
588 200
589 50
590 10
591 200
592 10
593 10
594 10
595 200
596 200
597 10
598 200
599 10
600 10
601 100
602 10
603 10
604 10
605 10
606 200
607 50
608 10
609 100
610 50
611 10
612 10
613 100
614 50
615 10
616 10
617 10
618 200
619 100
620 50
621 10
622 10
623 200
624 100
625 10
626 200
627 200
628 200
629 100
630 10
631 10
632 10
633 200
634 200
635 50
636 10
637 10
638 10
639 10
640 200
641 200
642 10
643 100
644 50
645 10
646 10
647 200
648 200
649 50
650 10
651 10
652 200
653 50
654 10
655 10
656 10
657 10
658 100
659 50
660 10
661 10
662 10
663 10
664 200
665 200
666 200
667 100
668 10
669 10
670 200
671 200
672 100
673 50
674 10
675 100
676 50
677 10
678 200
679 200
680 50
681 10
682 10
683 10
684 10
685 200
686 100
687 50
688 10
689 10
690 10
691 10
692 200
693 50
694 10
695 10
696 10
697 200
698 100
699 10
700 10
701 10
702 200
703 100
704 10
705 10
706 10
707 200
708 200
709 10
710 10
711 10
712 200
713 100
714 50
715 10
716 200
717 200
718 10
719 100
720 50
721 10
722 10
723 10
724 200
725 50
726 10
727 10
728 10
729 200
730 100
731 10
732 200
733 50
734 10
735 200
736 50
737 10
738 10
739 10
740 10
741 200
742 200
743 10
744 10
745 10
746 10
747 200
748 50
749 10
750 10
751 10
752 200
753 100
754 50
755 10
756 10
757 10
758 200
759 200
760 10
761 10
762 200
763 10
764 10
765 200
766 100
767 200
768 100
769 50
770 10
771 10
772 10
773 200
774 200
775 50
776 10
777 10
778 10
779 200
780 200
781 200
782 50
783 100
784 50
785 10
786 10
787 10
788 100
789 50
790 10
791 10
792 200
793 200
794 50
795 10
796 10
797 10
798 10
799 200
800 10
801 10
802 10
803 200
804 100
805 50
806 10
807 10
808 10
809 10
810 100
811 50
812 10
813 10
814 10
815 10
816 100
817 50
818 10
819 10
820 10
821 200
822 200
823 10
824 10
825 10
826 10
827 200
828 10
829 10
830 10
DEPOT_SECTION
1
-1
EOF