Normalized Data/p10_24_normalized_splitx10_0.sol
829 -8 9 7 6 481 480 482 486 484 730 728 -11 12 137 441 442 444 440 445 443 431 432 361 358 359 362 360 363 -17 15 16 770 771 768 769 766 767 247 248 817 818 816 819 -19 20 21 18 22 119 120 121 225 224 219 220 674 675 676 -23 29 24 173 174 176 175 172 494 493 497 496 495 498 -28 25 26 27 68 62 64 65 63 66 67 322 321 -31 30 700 699 698 697 696 209 211 212 213 210 198 201 200 199 -32 35 103 102 104 426 427 430 428 429 344 346 348 347 345 -39 41 40 434 435 433 -43 44 42 46 47 45 335 334 333 332 330 331 -49 48 50 712 714 713 711 282 281 280 284 283 350 349 193 194 -69 -70 71 73 469 471 468 470 467 506 508 -72 74 473 472 196 197 309 308 310 820 610 -76 75 78 79 215 218 217 807 806 805 453 454 455 452 327 328 -77 101 100 510 518 521 520 519 61 58 60 59 456 -83 85 86 88 84 82 87 319 320 318 317 316 536 538 183 181 185 182 -90 89 91 718 720 722 721 719 233 234 232 231 208 206 207 -98 99 94 95 96 97 796 795 793 792 791 797 794 -111 112 116 110 115 114 113 626 625 815 -118 117 34 33 642 645 644 643 665 664 -126 127 128 122 124 123 125 108 106 109 105 462 737 738 735 736 739 734 -132 129 130 131 355 356 357 354 304 301 307 305 303 306 302 -133 134 135 378 379 762 763 761 353 352 351 -136 37 38 36 184 179 180 311 314 -147 151 153 148 150 149 152 667 666 668 272 269 270 268 271 273 -154 646 648 650 647 649 501 505 503 502 504 -156 155 593 590 591 592 669 164 165 -158 163 80 81 477 476 533 530 528 529 532 531 -177 178 57 55 52 54 51 53 56 569 572 571 570 746 750 748 749 747 -191 192 195 189 187 186 190 188 582 579 580 -205 203 202 204 423 623 622 624 -228 226 229 227 230 671 672 673 235 236 811 809 810 814 813 812 -238 240 239 241 242 237 364 365 366 560 559 556 558 557 -246 245 166 243 244 169 167 170 168 171 492 491 490 -250 254 253 252 249 251 706 707 708 709 710 -267 261 263 264 266 265 262 525 527 526 397 -276 277 274 278 279 275 565 566 563 561 562 564 -286 287 288 285 608 609 611 637 632 636 635 634 633 -290 291 289 160 161 162 159 157 599 598 597 -294 292 293 689 687 690 688 685 684 686 144 143 145 146 374 376 -299 300 295 297 422 420 260 255 259 258 256 257 221 223 222 581 583 -312 313 315 548 547 549 546 545 544 542 543 -339 338 336 340 337 725 724 726 727 723 594 595 596 -369 367 368 780 781 732 733 731 409 412 751 752 753 -375 373 377 552 550 551 329 326 324 323 325 729 -380 381 385 384 383 382 372 370 371 701 -391 394 -392 393 -395 517 516 627 630 629 631 628 534 535 -396 717 716 715 450 451 821 822 824 825 823 -413 414 619 618 617 621 620 784 783 786 782 785 500 499 -419 421 298 296 774 776 775 777 773 772 425 424 -438 436 439 437 575 574 573 578 577 576 584 585 657 661 658 662 659 660 474 475 -466 465 461 464 463 107 343 341 342 741 743 745 742 740 744 -478 479 600 603 601 602 604 758 759 760 757 607 605 606 540 539 541 -485 483 10 808 802 803 804 214 216 778 779 -488 487 489 692 695 694 691 693 -507 509 670 407 404 408 405 406 798 799 801 800 638 -514 401 513 515 398 447 446 449 448 764 765 -523 524 522 93 92 678 682 683 -537 1 3 4 2 5 386 388 387 390 389 788 787 789 790 -568 567 417 415 418 416 555 553 554 663 -588 587 586 589 403 400 399 402 512 511 654 656 651 653 655 652 -613 612 614 616 615 460 458 459 457 13 14 640 641 639 -703 704 705 702 827 826 828 829 680 681 679 677 141 140 138 139 142 410 411 756 754 755 0 





OBJ=
5254.900
BEST_KNOWN=
0.000